echo            both
boundary        p p p
units           metal

atom_style      atomic
box tilt large
read_data       res.dat

pair_style      nn
pair_coeff      * * potential_saved Ge Te 

read_dump test.lammpstrj 0 x y z 

compute         TOT all orientorder/atom degrees 5 4 6 8 10 12 nnn NULL cutoff 6.0
dump 	mydump	all custom 1 dump.dump id type x y z c_TOT[*]

rerun test.lammpstrj every 1 dump x y z



