processors      * * * grid numa
units		metal
boundary	p p p

read_data	supercell_4.dat

pair_style	sw
pair_coeff 	* * Si.sw Si

neighbor 	0.5 bin
neigh_modify 	once no every 1 delay 0 check yes

#dump 		traj all custom 1 dump.lammps id type x y z vx vy vz
#dump_modify 	traj sort id

# The fourth element of the vector is the total VACF (dot(v_t,v_0))
compute		VACF all vacf

thermo		1000
thermo_style	custom step temp c_VACF[4]

variable	T equal 300
fix		NVT all nvt temp ${T} ${T} 1

timestep        0.001
run 		1000000
