units           metal
boundary        p p p
atom_style      atomic

box tilt        large
read_data       str.dat

# if N elements in ELEM LIST in 'NNP'
# pair_coeff      * * NNP 1 2 ... N
# else, segmentation error
pair_style      nn
pair_coeff      * * NNP A B C

mass            1 1
mass            2 2
mass            3 3

#thermo                 1
#thermo_modify  lost ignore flush yes

#neighbor       2 bin
#neigh_modify   every 10 delay 0 check yes page 300000 one 30000

### Default timestep
#timestep 0.001

run 0
